RT is False
Default write of storage_offers_DA.csv just to have a file (but constraint should be inactive)
Reading model...
...model read.
creating competitive generators file...
...competitive generators recorded.
Loading data...
.. day-ahead data with real-time VRE data read.
Compiling instance...
...instance created.
Creating Offer Mitigation (model will solve as dispatch if TRUE)...
...storage offer mitigation file created
Converting model to MPEC...
...converted
NOTE: initial MIP solve with only storage competitive to get feasible solution
Solving...

Welcome to IBM(R) ILOG(R) CPLEX(R) Interactive Optimizer 12.9.0.0
  with Simplex, Mixed Integer & Barrier Optimizers
5725-A06 5725-A29 5724-Y48 5724-Y49 5724-Y54 5724-Y55 5655-Y21
Copyright IBM Corp. 1988, 2019.  All Rights Reserved.

Type 'help' for a list of available commands.
Type 'help' followed by a command name for more
information on commands.

CPLEX> Logfile 'cplex.log' closed.
Logfile 'C:\Users\llavin\Desktop\test919\logs\tmps2yp9y1p.cplex.log' open.
CPLEX> New value for parallel optimization mode: -1
CPLEX> New value for mixed integer optimality gap tolerance: 0.01
CPLEX> New value for integrality tolerance: 1e-09
CPLEX> New value for feasibility tolerance: 0.1
CPLEX> New value for deterministic time limit in ticks: 100000
CPLEX> Problem 'C:\Users\llavin\Desktop\test919\logs\tmpbhwrfxd7.pyomo.lp' read.
Read time = 0.23 sec. (13.86 ticks)
CPLEX> Problem name         : C:\Users\llavin\Desktop\test919\logs\tmpbhwrfxd7.pyomo.lp
Objective sense      : Maximize
Variables            :   53321  [Nneg: 1,  Box: 21806,  Free: 4416,
                                 Binary: 27098]
Objective nonzeros   :    9029
Linear constraints   :  122164  [Less: 40983,  Greater: 58612,  Equal: 22569]
  Nonzeros           :  288457
  RHS nonzeros       :   66982

Variables            : Min LB: -5000.000        Max UB: 1000000.       
Objective nonzeros   : Min   : 0.07500000       Max   : 2500.000       
Linear constraints   :
  Nonzeros           : Min   : 0.07500000       Max   : 1000000.       
  RHS nonzeros       : Min   : 0.07500000       Max   : 1000000.       
CPLEX> CPXPARAM_Parallel                                -1
CPXPARAM_Simplex_Tolerances_Feasibility          0.10000000000000001
CPXPARAM_DetTimeLimit                            100000
CPXPARAM_MIP_Tolerances_MIPGap                   0.01
CPXPARAM_MIP_Tolerances_Integrality              1.0000000000000001e-09
Tried aggregator 3 times.
MIP Presolve eliminated 88137 rows and 19017 columns.
MIP Presolve added 3356 rows and 0 columns.
MIP Presolve modified 23497 coefficients.
Aggregator did 12852 substitutions.
Reduced MIP has 24531 rows, 20896 columns, and 68667 nonzeros.
Reduced MIP has 8277 binaries, 0 generals, 0 SOSs, and 0 indicators.
Presolve time = 0.28 sec. (173.16 ticks)
Probing fixed 445 vars, tightened 2899 bounds.
Probing time = 1.30 sec. (911.64 ticks)
Tried aggregator 2 times.
MIP Presolve eliminated 991 rows and 891 columns.
MIP Presolve modified 2211 coefficients.
Aggregator did 41 substitutions.
Reduced MIP has 23499 rows, 19964 columns, and 65666 nonzeros.
Reduced MIP has 7832 binaries, 0 generals, 0 SOSs, and 0 indicators.
Presolve time = 0.11 sec. (67.52 ticks)
Probing fixed 0 vars, tightened 1 bounds.
Probing time = 0.05 sec. (19.45 ticks)
Clique table members: 6404.
MIP emphasis: balance optimality and feasibility.
MIP search method: dynamic search.
Parallel mode: opportunistic, using up to 32 threads.
Root relaxation solution time = 0.28 sec. (189.69 ticks)

        Nodes                                         Cuts/
   Node  Left     Objective  IInf  Best Integer    Best Bound    ItCnt     Gap

      0     0       -2.8565  1661                     -2.8565     2987         
      0     0      -22.1826    51                    Cuts: 58     2997         
      0     0      -22.1826    46                   Cuts: 130     3010         
      0     0      -22.1826    46                    Cuts: 91     3011         
      0     6    infeasible                       Impl Bds: 1     3044         
Elapsed time = 8.91 sec. (5488.80 ticks, tree = 0.02 MB, solutions = 0)
*   308+  133                        -8964.5155      -26.2608            99.71%
    767   173    infeasible          -8684.1803      -26.2608     5860   99.70%
   1144   446      -26.3429     2    -8684.1803      -26.2608     7948   99.70%
   1335   407      -34.2379     3    -8684.1803      -26.2608     7858   99.70%
   1488   491        cutoff          -8684.1803      -26.2608     8163   99.70%
   1685   560      -34.7645     3    -8684.1803      -26.2608     8742   99.70%
   1958   627        cutoff          -8684.1803      -26.2608     9131   99.70%
   2114   668        cutoff          -8684.1803      -26.2608     9391   99.70%
   2237   669     -542.3248     4    -8684.1803      -26.2608     9396   99.70%
   2703   735      -34.7645     3    -8684.1803      -26.2608     9628   99.70%
Elapsed time = 20.69 sec. (8488.24 ticks, tree = 5.03 MB, solutions = 6)
   3164   781      -34.7645     1    -8684.1803      -26.2608     9843   99.70%
   3553   999      -34.7645     3    -8684.1803      -26.2608    10846   99.70%
   3862   936      -34.7645     3    -8684.1803      -26.2608    10568   99.70%
   4137  1004      -26.3429     2    -8684.1803      -26.2608    10866   99.70%
   4374  1086      -34.7645     1    -8684.1803      -26.2608    11250   99.70%
   4613  1105      -36.8419     3    -8684.1803      -26.2608    11382   99.70%
   4815  1108    infeasible          -8684.1803      -26.2608    11455   99.70%
   5022  1301      -36.8419     2    -8684.1803      -26.2608    12325   99.70%
   5188  1241      -26.2608     1    -8684.1803      -26.2608    12045   99.70%
   5354  1229      -26.3429     2    -8684.1803      -26.2608    11989   99.70%
Elapsed time = 34.97 sec. (18088.51 ticks, tree = 7.91 MB, solutions = 6)
   5508  1253      -34.7645     1    -8684.1803      -26.2608    12128   99.70%
   5625  1286      -34.7645     1    -8684.1803      -26.2608    12246   99.70%
   5772  1296    infeasible          -8684.1803      -26.2608    12305   99.70%
   5903  1326    infeasible          -8684.1803      -26.2608    12440   99.70%
   6044  1421    infeasible          -8684.1803      -26.2608    12895   99.70%
   6172  1433      -40.9022     1    -8684.1803      -26.2608    12937   99.70%
   6303  1444      -40.4319     1    -8684.1803      -26.2608    12986   99.70%
   6415  1381    -2977.9044     1    -8684.1803      -26.2608    12725   99.70%
   6557  1463    infeasible          -8684.1803      -26.2608    13151   99.70%
   6697  1442      -26.3429     2    -8684.1803      -26.2608    12987   99.70%
Elapsed time = 45.08 sec. (27775.82 ticks, tree = 8.28 MB, solutions = 6)
   6816  1470        cutoff          -8684.1803      -26.2608    13210   99.70%
   6934  1543    infeasible          -8684.1803      -26.2608    14000   99.70%
   7056  1478      -32.0272     3    -8684.1803      -26.2608    13285   99.70%
   7167  1513    infeasible          -8684.1803      -26.2608    13603   99.70%
   7290  1493        cutoff          -8684.1803      -26.2608    13365   99.70%
   7418  1510      -34.7645     1    -8684.1803      -26.2608    13564   99.70%
   7523  1547     -542.9064     4    -8684.1803      -26.2608    14033   99.70%
   7630  1529      -35.3462     3    -8684.1803      -26.2608    13740   99.70%
   7744  1585    infeasible          -8684.1803      -26.2608    14417   99.70%
   7860  1613      -40.9022     3    -8684.1803      -26.2608    14639   99.70%
Elapsed time = 53.34 sec. (37356.00 ticks, tree = 9.21 MB, solutions = 6)
   7973  1546    infeasible          -8684.1803      -26.2608    14066   99.70%
   8084  1557        cutoff          -8684.1803      -26.2608    14137   99.70%
   8187  1578    infeasible          -8684.1803      -26.2608    14336   99.70%
   8267  1562    infeasible          -8684.1803      -26.2608    14237   99.70%
   8343  1629      -32.0794     1    -8684.1803      -26.2608    14753   99.70%
   8436  1626      -26.3429     2    -8684.1803      -26.2608    14729   99.70%
   8526  1614      -34.9157     1    -8684.1803      -26.2608    14660   99.70%
   8595  1637      -26.9415     2    -8684.1803      -26.2608    14797   99.70%
   8685  1691      -32.0794     1    -8684.1803      -26.2608    15321   99.70%
   8768  1683      -34.9157     1    -8684.1803      -26.2608    15247   99.70%
Elapsed time = 62.98 sec. (46990.94 ticks, tree = 9.68 MB, solutions = 6)
   8853  1711        cutoff          -8684.1803      -26.2608    15631   99.70%
   8939  1688      -40.4319     1    -8684.1803      -26.2608    15323   99.70%
   9020  1713      -34.7645     1    -8684.1803      -26.2608    15703   99.70%
   9112  1698    infeasible          -8684.1803      -26.2608    15464   99.70%
   9175  1714    infeasible          -8684.1803      -26.2608    15803   99.70%
   9245  1711    infeasible          -8684.1803      -26.2608    15591   99.70%
   9325  1715      -34.9185     1    -8684.1803      -26.2608    15761   99.70%
   9396  1712      -35.3462     1    -8684.1803      -26.2608    15613   99.70%
   9469  1723    infeasible          -8684.1803      -26.2608    15916   99.70%
   9533  1717    infeasible          -8684.1803      -26.2608    15843   99.70%
Elapsed time = 72.81 sec. (56662.81 ticks, tree = 10.90 MB, solutions = 6)
   9596  1716     -542.6071     2    -8684.1803      -26.2608    15825   99.70%
   9659  1734    infeasible          -8684.1803      -26.2608    15990   99.70%
   9738  1718      -26.7934     2    -8684.1803      -26.2608    15847   99.70%
   9784  1744    infeasible          -8684.1803      -26.2608    16110   99.70%
   9856  1750      -40.9022     3    -8684.1803      -26.2608    16157   99.70%
   9944  1795      -32.0272     3    -8684.1803      -26.2608    16617   99.70%
   9988  1746      -34.8987     1    -8684.1803      -26.2608    16121   99.70%
  10078  1784      -32.0794     1    -8684.1803      -26.2608    16495   99.70%
  10140  1758    infeasible          -8684.1803      -26.2608    16279   99.70%
  10197  1753    infeasible          -8684.1803      -26.2608    16205   99.70%
Elapsed time = 81.47 sec. (66609.86 ticks, tree = 10.46 MB, solutions = 6)
  10265  1772      -40.4319     3    -8684.1803      -26.2608    16353   99.70%
  10313  1794      -26.7934     2    -8684.1803      -26.2608    16597   99.70%
  10386  1847    infeasible          -8684.1803      -26.2608    17035   99.70%
  10442  1815      -26.3429     2    -8684.1803      -26.2608    16817   99.70%
  10506  1858        cutoff          -8684.1803      -26.2608    17120   99.70%
  10580  1844    infeasible          -8684.1803      -26.2608    16996   99.70%
  10635  1853    infeasible          -8684.1803      -26.2608    17087   99.70%
  10704  1858     -543.2227     1    -8684.1803      -26.2608    17031   99.70%
  10747  1859        cutoff          -8684.1803      -26.2608    17042   99.70%
  10775  1847    infeasible          -8684.1803      -26.2608    17043   99.70%
Elapsed time = 86.95 sec. (76284.62 ticks, tree = 10.50 MB, solutions = 6)
  10808  1845      -40.9022     1    -8684.1803      -26.2608    17000   99.70%
  10832  1847      -52.2964     1    -8684.1803      -26.2608    17032   99.70%
  10843  1847      -40.4319     1    -8684.1803      -26.2608    17012   99.70%
  10846  1932    infeasible          -8684.1803      -26.2608    24828   99.70%
  11810   645    -4422.3736   222    -8684.1803      -26.2608    26094   99.70%
  15141  3405    -1409.4182   161    -8684.1803      -26.2608    29759   99.70%
  18270  3711      422.0504   107    -8684.1803      -26.2608    30716   99.70%
  19303  5502        cutoff          -8684.1803      -26.2608    38305   99.70%
  20015  6386      556.5530   158    -8684.1803      -26.2608    51918   99.70%
  20565  7361    -2284.5481    91    -8684.1803      -26.2608    63109   99.70%
Elapsed time = 120.47 sec. (91449.48 ticks, tree = 77.80 MB, solutions = 6)
  21064  8802        cutoff          -8684.1803      -26.2608    85513   99.70%
  21686  7997    -4575.1915    78    -8684.1803      -26.2608    72993   99.70%
  22258  8639     -361.9213   113    -8684.1803      -26.2608    81109   99.70%
  22801  8722    -6556.1145    83    -8684.1803      -26.2608    81397   99.70%
  23386  8739      556.5530   105    -8684.1803      -26.2608    82580   99.70%
  23879  8780    -2593.1310   127    -8684.1803      -26.2608    84552   99.70%
  24448  8845      556.5530   117    -8684.1803      -26.2608    84156   99.70%
  25034  8839        cutoff          -8684.1803      -26.2608    87134   99.70%

GUB cover cuts applied:  1
Clique cuts applied:  2
Cover cuts applied:  10
Implied bound cuts applied:  4
Flow cuts applied:  508
Mixed integer rounding cuts applied:  30
Gomory fractional cuts applied:  108

Root node processing (before b&c):
  Real time             =    8.02 sec. (5482.83 ticks)
Parallel b&c, 32 threads:
  Real time             =  121.19 sec. (94975.94 ticks)
  Sync time (average)   =    1.18 sec.
  Wait time (average)   =    0.27 sec.
                          ------------
Total (root+branch&cut) =  129.20 sec. (100458.77 ticks)

Solution pool: 6 solutions saved.

MIP - Deterministic time limit exceeded, integer feasible:  Objective = -8.6841803414e+03
Current MIP best bound = -2.6260836176e+01 (gap = 8657.92, 99.70%)
Solution time =  129.22 sec.  Iterations = 116022  Nodes = 25245 (11285)
Deterministic time = 100458.93 ticks  (777.43 ticks/sec)

CPLEX> Incumbent solution written to file 'C:\Users\llavin\Desktop\test919\logs\tmprtvmcvmv.cplex.sol'.
CPLEX> NOTE: no warmstart specified for MIP iteration, default behavior is true
NOTE: resolving with all competitive generators using storage-only solution to warmstart
Solving...

Welcome to IBM(R) ILOG(R) CPLEX(R) Interactive Optimizer 12.9.0.0
  with Simplex, Mixed Integer & Barrier Optimizers
5725-A06 5725-A29 5724-Y48 5724-Y49 5724-Y54 5724-Y55 5655-Y21
Copyright IBM Corp. 1988, 2019.  All Rights Reserved.

Type 'help' for a list of available commands.
Type 'help' followed by a command name for more
information on commands.

CPLEX> Logfile 'cplex.log' closed.
Logfile 'C:\Users\llavin\Desktop\test919\logs\tmphvyk2l0d.cplex.log' open.
CPLEX> New value for parallel optimization mode: -1
CPLEX> New value for mixed integer optimality gap tolerance: 0.01
CPLEX> New value for integrality tolerance: 1e-09
CPLEX> New value for feasibility tolerance: 0.1
CPLEX> New value for deterministic time limit in ticks: 100000
CPLEX> Problem 'C:\Users\llavin\Desktop\test919\logs\tmphsdtctb8.pyomo.lp' read.
Read time = 0.23 sec. (13.88 ticks)
CPLEX> MIP start file 'C:\Users\llavin\Desktop\test919\logs\tmpy3n8lpkh.cplex.mst' read.
CPLEX> Problem name         : C:\Users\llavin\Desktop\test919\logs\tmphsdtctb8.pyomo.lp
Objective sense      : Maximize
Variables            :   54041  [Nneg: 1,  Box: 22526,  Free: 4416,
                                 Binary: 27098]
Objective nonzeros   :    9725
Linear constraints   :  122164  [Less: 40983,  Greater: 58612,  Equal: 22569]
  Nonzeros           :  288457
  RHS nonzeros       :   66982

Variables            : Min LB: -5000.000        Max UB: 1000000.       
Objective nonzeros   : Min   : 0.07500000       Max   : 2500.000       
Linear constraints   :
  Nonzeros           : Min   : 0.07500000       Max   : 1000000.       
  RHS nonzeros       : Min   : 0.07500000       Max   : 1000000.       
CPLEX> CPXPARAM_Parallel                                -1
CPXPARAM_Simplex_Tolerances_Feasibility          0.10000000000000001
CPXPARAM_DetTimeLimit                            100000
CPXPARAM_MIP_Tolerances_MIPGap                   0.01
CPXPARAM_MIP_Tolerances_Integrality              1.0000000000000001e-09
Warning:  No solution found from 1 MIP starts.
Retaining values of one MIP start for possible repair.
Tried aggregator 3 times.
MIP Presolve eliminated 88137 rows and 19737 columns.
MIP Presolve added 3356 rows and 0 columns.
MIP Presolve modified 23497 coefficients.
Aggregator did 12852 substitutions.
Reduced MIP has 24531 rows, 20896 columns, and 68667 nonzeros.
Reduced MIP has 8277 binaries, 0 generals, 0 SOSs, and 0 indicators.
Presolve time = 0.28 sec. (173.52 ticks)
Probing fixed 445 vars, tightened 2899 bounds.
Probing time = 1.25 sec. (911.64 ticks)
Tried aggregator 2 times.
MIP Presolve eliminated 991 rows and 891 columns.
MIP Presolve modified 2211 coefficients.
Aggregator did 41 substitutions.
Reduced MIP has 23499 rows, 19964 columns, and 65666 nonzeros.
Reduced MIP has 7832 binaries, 0 generals, 0 SOSs, and 0 indicators.
Presolve time = 0.11 sec. (67.53 ticks)
Probing fixed 0 vars, tightened 1 bounds.
Probing time = 0.05 sec. (19.45 ticks)
Clique table members: 6404.
MIP emphasis: balance optimality and feasibility.
MIP search method: dynamic search.
Parallel mode: opportunistic, using up to 32 threads.
Root relaxation solution time = 0.28 sec. (201.27 ticks)

        Nodes                                         Cuts/
   Node  Left     Objective  IInf  Best Integer    Best Bound    ItCnt     Gap

      0     0    56024.8901  1745                  56024.8901     3041         
      0     0    55913.3953   835                  Cuts: 1023     3408         
      0     0    55712.4352   700                   Cuts: 689     3578         
      0     0    55688.6692   668                   Cuts: 348     3664         
      0     0    55636.2414   647                   Cuts: 292     3713         
      0     0    55610.6205   619                   Cuts: 271     3764         
      0     0    55607.4229   600                   Cuts: 241     3789         
      0     0    55606.2435   587                   Cuts: 200     3809         
      0     0    55597.2502   582                   Cuts: 158     3827         
      0     0    55597.2502   579                   Cuts: 145     3830         
      0     0    55597.2502   579                   Cuts: 145     3836         
Repair heuristic found nothing.
      0    32    51911.9966   529                    Cuts: 25     4251         
Elapsed time = 11.02 sec. (6388.78 ticks, tree = 0.02 MB, solutions = 0)
    508    81    52858.3498   542                  55152.6150     5013         
   1052   609    52135.2298   515                  55152.6150     7493         
   1924  1684    51540.4064   471                  55152.6150    10651         
   2821  2042    47563.7416   433                  55152.6150    12616         
   3960  3347    54364.6218   490                  55152.6150    15231         
   4668  3612  -134238.4402   380                  55152.6150    16252         
   5211  4392  -355552.7384   308                  55152.6150    21710         
   5921  4949  -229890.4237   314                  55152.6150    41707         
   6659  5124  -291441.7784   240                  55152.6150    50863         
   9548  6922  -136103.8676   185                  55152.6150    60667         
Elapsed time = 28.27 sec. (9491.85 ticks, tree = 58.53 MB, solutions = 0)
* 12418+ 1732                        50861.3347    55152.6150             8.44%
  15964  1796    54944.5933   540    50861.3347    55085.1502    65103    8.30%
  16084  4266        cutoff          50861.3347    55085.1502    73987    8.30%
  16866   591    54516.0697   340    50861.3347    55085.1502    77682    8.30%
  19114   708    51181.6923   285    50861.3347    55085.1502    78272    8.30%
  23165  3518    51732.7441   145    50861.3347    55085.1502    90095    8.30%
  25950  3357    51589.3525   223    50861.3347    55085.1502    89849    8.30%
  26626  5462    53918.7135   329    50861.3347    55085.1502    94962    8.30%
  27220  8715    54879.7783   330    50861.3347    55085.1502   112916    8.30%
  30267  8858    52070.5051   181    50861.3347    55085.1502   112680    8.30%
Elapsed time = 72.92 sec. (22236.14 ticks, tree = 100.29 MB, solutions = 11)
  33889 11652    51253.5061   149    50861.3347    55085.1502   121851    8.30%
  37525 14793    52863.5160   273    50861.3347    55085.1502   131269    8.30%
  41148 16237    51215.0937   170    53013.2954    55085.1502   137435    3.91%
  44763  2418    53737.2769   330    53013.2954    55030.9244   161723    3.81%
  48064  2210    53618.7970   293    53013.2954    54586.5095   148736    2.97%
  49918  2960        cutoff          53013.2954    54586.5095   173006    2.97%
  50423  3837    53588.2389   322    53013.2954    54471.8359   183248    2.75%
  51304  5216    53205.4003   336    53013.2954    54466.5564   192489    2.74%
  54075  5429    53103.9345   292    53013.2954    54466.5564   195527    2.74%
  57369  6168    53455.4671   303    53013.2954    54380.1605   203050    2.58%
Elapsed time = 115.86 sec. (31780.26 ticks, tree = 66.32 MB, solutions = 12)
  60245  7703    53898.8325   307    53353.6804    54380.1605   215158    1.92%
  62893  9523    53424.7440   311    53353.6804    54167.1861   227767    1.52%
  65137  7528    53099.2707   164    53353.6804    54096.7542   214284    1.39%
  67201  3699    53752.4506   303    53353.6804    54096.7542   241688    1.39%
  69036  4223    53422.3268   305    53353.6804    54096.7542   255359    1.39%
  70389  4096    53728.4716   298    53353.6804    54022.9981   249987    1.25%
  71647  5104    53649.7917   315    53353.6804    54022.9981   273706    1.25%
  72787  6085    53545.1882   317    53353.6804    54022.9981   293020    1.25%
  73549  3879        cutoff          53353.6804    54022.9981   243103    1.25%
  74343  5772    53362.6518   298    53353.6804    54022.9981   286840    1.25%
Elapsed time = 145.33 sec. (41320.42 ticks, tree = 69.31 MB, solutions = 13)
  75694  6055    53426.2133   315    53353.6804    54020.4152   292682    1.25%
  76606  4139    53354.5110   261    53353.6804    54020.4152   252916    1.25%
  77034  6872    53356.0577   290    53353.6804    54020.4152   309609    1.25%
  77081  4849        cutoff          53353.6804    54020.4152   268079    1.25%
  77083  6978        cutoff          53353.6804    54018.0585   321711    1.25%
  77551    31    54155.6151   248    53353.6804    54018.0585   322979    1.25%
  78364   114    53984.2224   149    53353.6804    54018.0585   326241    1.25%
  79384   104        cutoff          53353.6804    54018.0585   326202    1.25%
  80883   582    53394.5825   181    53353.6804    54010.6404   336580    1.23%
  81883   785        cutoff          53353.6804    54010.6404   347964    1.23%
Elapsed time = 178.50 sec. (55570.64 ticks, tree = 6.97 MB, solutions = 13)
  82221  1217        cutoff          53353.6804    54010.6404   365113    1.23%

GUB cover cuts applied:  5
Clique cuts applied:  18
Cover cuts applied:  9
Implied bound cuts applied:  33
Flow cuts applied:  373
Mixed integer rounding cuts applied:  82
Gomory fractional cuts applied:  169

Root node processing (before b&c):
  Real time             =    9.28 sec. (6357.20 ticks)
Parallel b&c, 32 threads:
  Real time             =  169.56 sec. (51052.88 ticks)
  Sync time (average)   =   10.20 sec.
  Wait time (average)   =    0.42 sec.
                          ------------
Total (root+branch&cut) =  178.84 sec. (57410.08 ticks)

Solution pool: 13 solutions saved.

MIP - Integer optimal, tolerance (0.01/1e-06):  Objective =  5.3353680389e+04
Current MIP best bound =  5.3886465372e+04 (gap = 532.785, 1.00%)
Solution time =  178.86 sec.  Iterations = 383772  Nodes = 82268 (1382)
Deterministic time = 57410.24 ticks  (320.98 ticks/sec)

CPLEX> Incumbent solution written to file 'C:\Users\llavin\Desktop\test919\logs\tmp82bpgyud.cplex.sol'.
CPLEX> Exporting results... 
